32      4       
16      19      20      13      
0       0       0       0       0       8       2       25      26      27      28      29      30      31      
3       0       0       18      7       1       3       
10      0       0       18      13      2       4       24      
4       0       19      0       9       3       5       22      23      
9       13      0       4       0       1       6       
2       10      0       13      0       2       7       21      
7       16      19      0       0       3       8       19      20      
6       16      0       0       4       2       9       18      
3       9       0       10      0       2       10      17      
6       15      0       0       13      1       11      
2       16      1       0       0       1       12      
1       15      19      0       0       1       13      
1       0       19      0       13      1       14      
6       5       7       0       0       1       15      
1       0       0       16      6       1       16      
10      9       12      0       0       1       32      
10      0       7       0       6       1       32      
7       0       0       16      13      1       32      
8       10      12      0       0       1       32      
7       0       18      15      0       1       32      
8       3       0       0       6       1       32      
9       0       18      20      0       1       32      
4       16      0       0       9       1       32      
10      0       19      0       13      1       32      
4       16      0       16      0       1       32      
9       0       17      18      0       1       32      
3       0       19      20      0       1       32      
8       0       0       20      13      1       32      
5       0       0       10      13      1       32      
2       11      8       0       0       1       32      
6       0       0       11      8       1       32      
0       0       0       0       0       0       
